1539
58 81 40 21 24 26 62 46 70 78 49 53 14 68 80 20 96 85 73 31 43 47 22 52 89 4 36 45 57 12 29 9 83 28 17 91 63 84 44 76 48 54 1 69 67 50 15 64 71 37 2 97 35 3 65 33 27 93 8 10 94 18 72 74 99 95 6 41 79 7 82 88 34 23 55 87 39 5 98 61 90 13 77 16 25 92 51 11 59 38 86 30 56 75 19 32 66 42 60 
